min: +1 x1 +5 x2 +3 x3 +7 x4 +2 x5 +0 x6 +4 x7 +0 x8 +2 x9 +6 x10 +10 x11 ;
+ 1 x1 + 1 x2 + 1 x3 + 1 x4 <=4;
+ 1 x5 + 1 x6 + 1 x7 + 1 x8 + 1 x9 + 1 x10 + 1 x11 <=2;
+ 1 x1 + 1 x2 + 2 x5 + 1 x6 + 1 x7 + 1 x8 =5;
+ 1 x1 + 2 x3 + 1 x4 + 2 x6 + 1 x7 + 3 x9 + 2 x10 + 1 x11 =7;
